 Node            Displacements                Applied/reaction forces
number     1-direction     2-direction      1-direction     2-direction
     1    -0.178453695    14.544634983      0.000000000     0.000000000
     2    -0.908254850    14.535669250      0.000000000     0.000000000
     3    -0.966329729     1.474538785      0.000000000     0.000000000
     4    -0.249273313     1.459650419      0.000000000     0.000000000
     5    -1.630549954    14.587540319      0.000000000     0.000000000
     6    -1.709807162     1.367443865      0.000000000     0.000000000
     7     0.000000000     0.000000000      0.000000000     0.000000000
     8     0.000000000     0.000000000      0.000000000     0.000000000
     9     0.000000000     0.000000000      0.000000000     0.000000000
    10     0.000000000    -0.069471828      0.000000000     0.000000000
    11     0.000000000     0.000000000      0.000000000     0.000000000
    12     0.940975970     1.145509663      0.000000000     0.000000000
    13     0.313956190     1.138925930      0.000000000     0.000000000
    14    -0.196429192     0.000000000      0.000000000     0.000000000
    15     1.606149268     1.037810165      0.000000000     0.000000000
    16     0.880821298    12.696855028      0.000000000     0.000000000
    17     0.232283331    12.701791720      0.000000000     0.000000000
    18     1.516571432    12.748914885      0.000000000     0.000000000
    19     0.000000000     0.000000000      0.000000000     0.000000000
    20     0.000000000     0.000000000      0.000000000     0.000000000
    21    -1.468569519    -0.958849202      0.000000000     0.000000000
    22    -1.451101026    -0.250218921      0.000000000     0.000000000
    23     0.000000000     0.000000000      0.000000000     0.000000000
    24    -1.332406297    -1.701667867      0.000000000     0.000000000
    25   -18.669383055    -0.903520160      0.000000000     0.000000000
    26   -10.062415285    -0.889758671      0.000000000     0.000000000
    27   -18.665744811    -0.186388977      0.000000000     0.000000000
    28   -10.068699103    -0.172408054      0.000000000     0.000000000
    29   -18.651351747    -1.620339896      0.000000000     0.000000000
    30   -10.099712999    -1.602008801      0.000000000     0.000000000
    31     0.000000000     0.000000000      0.000000000     0.000000000
    32     0.000000000     0.000000000      0.000000000     0.000000000
    33     1.468569519    -0.958849202      0.000000000     0.000000000
    34     1.332406297    -1.701667867      0.000000000     0.000000000
    35     0.000000000     0.000000000      0.000000000     0.000000000
    36     1.451101026    -0.250218921      0.000000000     0.000000000
    37    18.665744812    -0.186388977      0.000000000     0.000000000
    38    10.068699103    -0.172408054      0.000000000     0.000000000
    39    18.669383055    -0.903520160      0.000000000     0.000000000
    40    10.062415285    -0.889758671      0.000000000     0.000000000
    41    18.651351747    -1.620339896      0.000000000     0.000000000
    42    10.099712999    -1.602008801      0.000000000     0.000000000
                                            ___________     ___________
                              Summation     0.000000000     0.000000000

Element                    Element strain                                   Element Stress
number      1-direction     2-direction     3-direction      1-direction     2-direction     3-direction
      1    -0.007160805    -0.005922632    -0.005704375     -0.196430661    -0.177381845    -0.043879807
      2    -0.007629560     0.055223852     0.005704375      0.196430661     1.163406230     0.043879807
      3     0.303900760    -0.014888366    -0.016490886      6.580629685     1.676181591    -0.126852966
      4     0.669034223     0.107094920     0.032981771     -6.580629685   -10.903239704     0.126852966
      5     0.313733040    -0.076055561    -0.038542925      6.393423550     0.396675837    -0.296484040
      6     0.685888607     0.107699498     0.077085850     -6.393423550   -10.841032082     0.296484040
      7    -0.007879307    -0.001647041     0.008565094     -0.184031202    -0.088150186     0.065885342
      8    -0.008318473     0.055639641    -0.008565094      0.184031202     1.168002187    -0.065885342
      9    -0.017468493     0.302267031     0.021287355      1.608703654     6.527711715     0.163748887
     10     0.136163222     0.665129267    -0.042574711    -10.596681293    -6.527711715    -0.163748887
     11    -0.011184675    -0.012241783     0.008306089     -0.326532092    -0.342795293     0.063892991
     12     0.002645574     0.002311868    -0.000814010      0.073387569     0.068253623    -0.006261617
     13     0.098865508    -0.014062466    -0.008306089      2.080148743     0.342795293    -0.063892991
     14    -0.019266406     0.002674382     0.000814010     -0.405804211    -0.068253623     0.006261617
     15     0.136163222     0.665129267     0.042574711    -10.596681293    -6.527711715     0.163748887
     16    -0.017468493     0.302267031    -0.021287355      1.608703654     6.527711715    -0.163748887
     17    -0.011184675    -0.012241783    -0.008306089     -0.326532092    -0.342795293    -0.063892991
     18     0.002645574     0.002311868     0.000814010      0.073387569     0.068253623     0.006261617
     19     0.098865508    -0.014062466     0.008306089      2.080148743     0.342795293     0.063892991
     20    -0.019266406     0.002674382    -0.000814010     -0.405804211    -0.068253623    -0.006261617

Element                    Principal stresses             Von mises stress
number     1st principal    2nd principal   Angle
      1    -0.142004674    -0.231807832     0.892268764      0.202441110
      2     1.165393342     0.194443549    -1.525541903      1.081363361
      3     6.583908529     1.672902746     0.025841847      5.927243581
      4    -6.576910209   -10.906959179    -0.029312754      9.512277080
      5     6.408046303     0.382053083     0.049280608      6.225817868
      6    -6.373746548   -10.860709084    -0.066270642      9.452842950
      7    -0.054609588    -0.217571800    -1.099914894      0.196056596
      8     1.172394175     0.179639214     1.504233726      1.093695744
      9     6.533156725     1.603258644    -1.537556377      5.897307443
     10    -6.521132552   -10.603260456     1.530639560      9.263316638
     11    -0.270255330    -0.399072055    -0.722103906      0.352767768
     12     0.077587959     0.064053234     0.590869359      0.071784040
     13     2.082495306     0.340448731     0.036709942      1.934866701
     14    -0.068137509    -0.405920325    -1.552254673      0.376504490
     15    -6.521132552   -10.603260456    -1.530639560      9.263316638
     16     6.533156725     1.603258644     1.537556377      5.897307443
     17    -0.270255330    -0.399072055     0.722103906      0.352767769
     18     0.077587959     0.064053234    -0.590869359      0.071784040
     19     2.082495306     0.340448731    -0.036709942      1.934866701
     20    -0.068137509    -0.405920325     1.552254673      0.376504490
 Node            Temperatures
     1    10.000000000    14.544634983      0.000000000     0.000000000
     2    10.000000000    14.535669250      0.000000000     0.000000000
     3    10.000000000     1.474538785      0.000000000     0.000000000
     4    10.000000000     1.459650419      0.000000000     0.000000000
     5    10.000000000    14.587540319      0.000000000     0.000000000
     6    10.000000000     1.367443865      0.000000000     0.000000000
     7    10.000000000     0.000000000      0.000000000     0.000000000
     8    10.000000000     0.000000000      0.000000000     0.000000000
     9    10.000000000     0.000000000      0.000000000     0.000000000
    10    10.000000000    -0.069471828      0.000000000     0.000000000
    11    10.000000000     0.000000000      0.000000000     0.000000000
    12    10.000000000     1.145509663      0.000000000     0.000000000
    13    10.000000000     1.138925930      0.000000000     0.000000000
    14    10.000000000     0.000000000      0.000000000     0.000000000
    15    10.000000000     1.037810165      0.000000000     0.000000000
    16    10.000000000    12.696855028      0.000000000     0.000000000
    17    10.000000000    12.701791720      0.000000000     0.000000000
    18    10.000000000    12.748914885      0.000000000     0.000000000
    19    10.000000000     0.000000000      0.000000000     0.000000000
    20    10.000000000     0.000000000      0.000000000     0.000000000
    21    10.000000000    -0.958849202      0.000000000     0.000000000
    22    10.000000000    -0.250218921      0.000000000     0.000000000
    23    10.000000000     0.000000000      0.000000000     0.000000000
    24    10.000000000    -1.701667867      0.000000000     0.000000000
    25    10.000000000    -0.903520160      0.000000000     0.000000000
    26    10.000000000    -0.889758671      0.000000000     0.000000000
    27    10.000000000    -0.186388977      0.000000000     0.000000000
    28    10.000000000    -0.172408054      0.000000000     0.000000000
    29    10.000000000    -1.620339896      0.000000000     0.000000000
    30    10.000000000    -1.602008801      0.000000000     0.000000000
    31    10.000000000     0.000000000      0.000000000     0.000000000
    32    10.000000000     0.000000000      0.000000000     0.000000000
    33    10.000000000    -0.958849202      0.000000000     0.000000000
    34    10.000000000    -1.701667867      0.000000000     0.000000000
    35    10.000000000     0.000000000      0.000000000     0.000000000
    36    10.000000000    -0.250218921      0.000000000     0.000000000
    37    10.000000000    -0.186388977      0.000000000     0.000000000
    38    10.000000000    -0.172408054      0.000000000     0.000000000
    39    10.000000000    -0.903520160      0.000000000     0.000000000
    40    10.000000000    -0.889758671      0.000000000     0.000000000
    41    10.000000000    -1.620339896      0.000000000     0.000000000
    42    10.000000000    -1.602008801      0.000000000     0.000000000

Compliance        Max Von mises stress            Average Area of elements
           45.3189791197              9.51227708037              2.50000000000
