 Node            Displacements                Applied/reaction forces
number     1-direction     2-direction      1-direction     2-direction
     1     0.000000000    -0.018000000      0.000000000     0.000000000
     2     0.000000000    -0.009000000      0.000000000     0.000000000
     3     0.000000000     0.000000000      0.000000000     0.000000000
     4    -0.030000000    -0.018000000      0.000000000     0.000000000
     5    -0.030000000    -0.009000000      0.000000000     0.000000000
     6    -0.030000000     0.000000000      0.000000000     0.000000000
     7    -0.060000000    -0.018000000      0.000000000     0.000000000
     8    -0.060000000    -0.009000000      0.000000000     0.000000000
     9    -0.060000000     0.000000000      0.000000000     0.000000000
    10    -0.090000000    -0.018000000      0.000000000     0.000000000
    11    -0.090000000    -0.009000000      0.000000000     0.000000000
    12    -0.090000000     0.000000000      0.000000000     0.000000000
                                            ___________     ___________
                              Summation     0.000000000     0.000000000

Element                    Element strain                                   Element Stress
number      1-direction     2-direction     3-direction      1-direction     2-direction     3-direction
      1    -0.015000000     0.004500000     0.000000000     -0.015000001     0.000000000     0.000000000
      2    -0.015000000     0.004500000     0.000000000     -0.015000001     0.000000000     0.000000000
      3    -0.015000000     0.004500000     0.000000000     -0.015000001     0.000000000     0.000000000
      4    -0.015000000     0.004500000     0.000000000     -0.015000001     0.000000000     0.000000000
      5    -0.015000000     0.004500000     0.000000000     -0.015000001     0.000000000     0.000000000
      6    -0.015000000     0.004500000     0.000000000     -0.015000001     0.000000000     0.000000000

Element                    Principal stresses             Von mises stress
number     1st principal    2nd principal   Angle
      1     0.000000000    -0.015000001    -1.570796327      0.015000001
      2     0.000000000    -0.015000001    -1.570796327      0.015000001
      3     0.000000000    -0.015000001    -1.570796327      0.015000001
      4     0.000000000    -0.015000001    -1.570796327      0.015000001
      5     0.000000000    -0.015000001    -1.570796327      0.015000001
      6     0.000000000    -0.015000001    -1.570796327      0.015000001

Compliance        Max Von mises stress            Average Area of elements
        2.700000000000E-03         1.500000089407E-02            4.00000000000
