 Node            Displacements                Applied/reaction forces
number     1-direction     2-direction      1-direction     2-direction
     1     0.000000000     0.000000000      0.000000000     0.000000000
     2     0.000000000     2.000000000      0.000000000     0.000000000
     3     0.000000000     4.000000000      0.000000000     0.000000000
     4     0.000000000     6.000000000      0.000000000     0.000000000
     5     0.000000000     8.000000000      0.000000000     0.000000000
     6     0.000000000    10.000000000      0.000000000     0.000000000
     7     2.000000000     0.000000000      0.000000000     0.000000000
     8     2.000000000     2.000000000      0.000000000     0.000000000
     9     2.000000000     4.000000000      0.000000000     0.000000000
    10     2.000000000     6.000000000      0.000000000     0.000000000
    11     2.000000000     8.000000000      0.000000000     0.000000000
    12     2.000000000    10.000000000      0.000000000     0.000000000
    13     4.000000000     0.000000000      0.000000000     0.000000000
    14     4.000000000     2.000000000      0.000000000     0.000000000
    15     4.000000000     4.000000000      0.000000000     0.000000000
    16     4.000000000     6.000000000      0.000000000     0.000000000
    17     4.000000000     8.000000000      0.000000000     0.000000000
    18     4.000000000    10.000000000      0.000000000     0.000000000
    19     6.000000000     0.000000000      0.000000000     0.000000000
    20     6.000000000     2.000000000      0.000000000     0.000000000
    21     6.000000000     4.000000000      0.000000000     0.000000000
    22     6.000000000     6.000000000      0.000000000     0.000000000
    23     6.000000000     8.000000000      0.000000000     0.000000000
    24     6.000000000    10.000000000      0.000000000     0.000000000
    25     8.000000000     0.000000000      0.000000000     0.000000000
    26     8.000000000     2.000000000      0.000000000     0.000000000
    27     8.000000000     4.000000000      0.000000000     0.000000000
    28     8.000000000     6.000000000      0.000000000     0.000000000
    29     8.000000000     8.000000000      0.000000000     0.000000000
    30     8.000000000    10.000000000      0.000000000     0.000000000
    31    10.000000000     0.000000000      0.000000000     0.000000000
    32    10.000000000     2.000000000      0.000000000     0.000000000
    33    10.000000000     4.000000000      0.000000000     0.000000000
    34    10.000000000     6.000000000      0.000000000     0.000000000
    35    10.000000000     8.000000000      0.000000000     0.000000000
    36    10.000000000    10.000000000      0.000000000     0.000000000
                                            ___________     ___________
                              Summation     0.000000000     0.000000000

Element                    Element strain                                   Element Stress
number      1-direction     2-direction     3-direction      1-direction     2-direction     3-direction
      1     1.000000000     1.000000000     0.000000000      0.000000000     0.000000000     0.000000000
      2     1.000000000     1.000000000     0.000000000      0.000000000     0.000000000     0.000000000
      3     1.000000000     1.000000000     0.000000000      0.000000000     0.000000000     0.000000000
      4     1.000000000     1.000000000     0.000000000      0.000000000     0.000000000     0.000000000
      5     1.000000000     1.000000000     0.000000000      0.000000000     0.000000000     0.000000000
      6     1.000000000     1.000000000     0.000000000      0.000000000     0.000000000     0.000000000
      7     1.000000000     1.000000000     0.000000000      0.000000000     0.000000000     0.000000000
      8     1.000000000     1.000000000     0.000000000      0.000000000     0.000000000     0.000000000
      9     1.000000000     1.000000000     0.000000000      0.000000000     0.000000000     0.000000000
     10     1.000000000     1.000000000     0.000000000      0.000000000     0.000000000     0.000000000
     11     1.000000000     1.000000000     0.000000000      0.000000000     0.000000000     0.000000000
     12     1.000000000     1.000000000     0.000000000      0.000000000     0.000000000     0.000000000
     13     1.000000000     1.000000000     0.000000000      0.000000000     0.000000000     0.000000000
     14     1.000000000     1.000000000     0.000000000      0.000000000     0.000000000     0.000000000
     15     1.000000000     1.000000000     0.000000000      0.000000000     0.000000000     0.000000000
     16     1.000000000     1.000000000     0.000000000      0.000000000     0.000000000     0.000000000
     17     1.000000000     1.000000000     0.000000000      0.000000000     0.000000000     0.000000000
     18     1.000000000     1.000000000     0.000000000      0.000000000     0.000000000     0.000000000
     19     1.000000000     1.000000000     0.000000000      0.000000000     0.000000000     0.000000000
     20     1.000000000     1.000000000     0.000000000      0.000000000     0.000000000     0.000000000
     21     1.000000000     1.000000000     0.000000000      0.000000000     0.000000000     0.000000000
     22     1.000000000     1.000000000     0.000000000      0.000000000     0.000000000     0.000000000
     23     1.000000000     1.000000000     0.000000000      0.000000000     0.000000000     0.000000000
     24     1.000000000     1.000000000     0.000000000      0.000000000     0.000000000     0.000000000
     25     1.000000000     1.000000000     0.000000000      0.000000000     0.000000000     0.000000000

Element                    Principal stresses             Von mises stress
number     1st principal    2nd principal   Angle
      1     0.000000000     0.000000000    -1.037097856      0.000000000
      2     0.000000000     0.000000000    -1.276795025      0.000000000
      3     0.000000000     0.000000000    -1.349609215      0.000000000
      4     0.000000000     0.000000000    -1.256398184      0.000000000
      5     0.000000000     0.000000000    -1.391410992      0.000000000
      6     0.000000000     0.000000000    -0.321750554      0.000000000
      7     0.000000000     0.000000000    -1.240274742      0.000000000
      8     0.000000000     0.000000000    -1.213750977      0.000000000
      9     0.000000000     0.000000000    -1.178097245      0.000000000
     10     0.000000000     0.000000000    -1.216483191      0.000000000
     11     0.000000000     0.000000000     1.472098547      0.000000000
     12     0.000000000     0.000000000    -1.368350434      0.000000000
     13     0.000000000     0.000000000    -1.049435388      0.000000000
     14     0.000000000     0.000000000    -1.233425856      0.000000000
     15     0.000000000     0.000000000    -1.017221968      0.000000000
     16     0.000000000     0.000000000     1.364591106      0.000000000
     17     0.000000000     0.000000000     1.115919748      0.000000000
     18     0.000000000     0.000000000    -1.368350434      0.000000000
     19     0.000000000     0.000000000    -0.294001302      0.000000000
     20     0.000000000     0.000000000    -0.785398163      0.000000000
     21     0.000000000     0.000000000     0.000000000      0.000000000
     22     0.000000000     0.000000000    -0.392699082      0.000000000
     23     0.000000000     0.000000000    -1.055607914      0.000000000
     24     0.000000000     0.000000000     0.000000000      0.000000000
     25     0.000000000     0.000000000     1.178097245      0.000000000

Compliance        Max Von mises stress            Average Area of elements
           285.714285714           6.873787015674E-15            4.00000000000
