 Node            Displacements                Applied/reaction forces
number     1-direction     2-direction      1-direction     2-direction
     1    -0.002137943    -0.002241934      0.000000000     0.000000000
     2     0.006562185    -0.005909060      0.000000000     0.000000000
     3    -0.001331068    -0.001560785      0.000000000     0.000000000
     4    -0.000505382    -0.001102477      0.000000000     0.000000000
     5     0.000393132    -0.000940382      0.000000000     0.000000000
     6     0.001274746    -0.001043616      0.000000000     0.000000000
     7     0.002155631    -0.001380741      0.000000000     0.000000000
     8     0.002989221    -0.001889764      0.000000000     0.000000000
     9     0.003723443    -0.002428486      0.000000000     0.000000000
    10     0.004447641    -0.003120909      0.000000000     0.000000000
    11     0.005148103    -0.003956804      0.000000000     0.000000000
    12     0.005832672    -0.004881182      0.000000000     0.000000000
    13     0.006985344    -0.005575916      0.000000000     0.000000000
    14     0.007210705    -0.006802696      0.000000000     0.000000000
    15    -0.002994007    -0.001642791      0.000000000     0.000000000
    16    -0.002345844    -0.000816777      0.000000000     0.000000000
    17    -0.001606616    -0.000070473      0.000000000     0.000000000
    18    -0.000806097     0.000566857      0.000000000     0.000000000
    19     0.000023287     0.001078637      0.000000000     0.000000000
    20     0.001054822     0.001282257      0.000000000     0.000000000
    21     0.002058990     0.001079510      0.000000000     0.000000000
    22     0.002990365     0.000597531      0.000000000     0.000000000
    23     0.003813311    -0.000047816      0.000000000     0.000000000
    24     0.004418230    -0.000797409      0.000000000     0.000000000
    25     0.004960538    -0.001657841      0.000000000     0.000000000
    26     0.005538653    -0.002536171      0.000000000     0.000000000
    27     0.006131526    -0.003445025      0.000000000     0.000000000
    28     0.006629990    -0.004445548      0.000000000     0.000000000
    29    -0.003483321    -0.002435930      0.000000000     0.000000000
    30    -0.003806794    -0.003354729      0.000000000     0.000000000
    31    -0.003359472    -0.004372634      0.000000000     0.000000000
    32    -0.002598433    -0.003260749      0.000000000     0.000000000
    33    -0.002426615    -0.001655960      0.000000000     0.000000000
    34     0.000000000     0.000000000      0.000000000     0.000000000
    35    -0.001707045    -0.001000538      0.000000000     0.000000000
    36    -0.000891131    -0.000441589      0.000000000     0.000000000
    37     0.000000000     0.000000000      0.000000000     0.000000000
    38    -0.001733932    -0.001298654      0.000000000     0.000000000
    39    -0.000966233    -0.000541147      0.000000000     0.000000000
    40    -0.002457023    -0.002193268      0.000000000     0.000000000
    41    -0.003048104    -0.003539571      0.000000000     0.000000000
    42    -0.003510996    -0.003426986      0.000000000     0.000000000
    43    -0.003091094    -0.002482798      0.000000000     0.000000000
    44     0.006786432    -0.005316998      0.000000000     0.000000000
    45     0.003908921    -0.001204453      0.000000000     0.000000000
    46     0.006355404    -0.004370267      0.000000000     0.000000000
    47     0.005801076    -0.003544659      0.000000000     0.000000000
    48     0.005171268    -0.002784357      0.000000000     0.000000000
    49     0.004522138    -0.002028180      0.000000000     0.000000000
    50     0.005823843    -0.004580689      0.000000000     0.000000000
    51     0.006301814    -0.005358948      0.000000000     0.000000000
    52     0.006874456    -0.006136429      0.000000000     0.000000000
    53     0.003927559    -0.001681405      0.000000000     0.000000000
    54     0.005274179    -0.003512555      0.000000000     0.000000000
    55     0.004649155    -0.002543867      0.000000000     0.000000000
    56     0.000284472     0.000127687      0.000000000     0.000000000
    57     0.003630937    -0.000901908      0.000000000     0.000000000
    58     0.001192409     0.000186754      0.000000000     0.000000000
    59     0.002061938    -0.000019424      0.000000000     0.000000000
    60     0.002858704    -0.000398892      0.000000000     0.000000000
    61     0.003573867    -0.001349163      0.000000000     0.000000000
    62     0.000271173    -0.000041125      0.000000000     0.000000000
    63     0.001196918     0.000021234      0.000000000     0.000000000
    64     0.002075470    -0.000256754      0.000000000     0.000000000
    65     0.002860744    -0.000731017      0.000000000     0.000000000
    66    -0.003331244    -0.002606676      0.000000000     0.000000000
                                            ___________     ___________
                              Summation     0.000000000     0.000000000

Element                    Element strain                                   Element Stress
number      1-direction     2-direction     3-direction      1-direction     2-direction     3-direction
      1     0.014270491     0.015452366     0.001326244  *************** *************** ***************
      2     0.014250701     0.012600969     0.000218885  *************** *************** ***************
      3     0.012552913     0.013244391    -0.000535667  *************** *************** ***************
      4     0.012864342     0.011686797    -0.000823931  *************** *************** ***************
      5     0.006032042     0.004907601    -0.001722810  *************** *************** ***************
      6     0.008598214     0.007996044     0.004008838  *************** *************** ***************
      7     0.011966861     0.011810842     0.000117527  *************** *************** ***************
      8     0.008502396     0.010831396     0.002770002  *************** *************** ***************
      9     0.006929740     0.005476746    -0.003171113  *************** *************** ***************
     10     0.012186608     0.009964715     0.001180942  *************** *************** ***************
     11     0.013857613     0.014005374     0.001646903  *************** *************** ***************
     12     0.013544054     0.014763017    -0.000364834  *************** *************** ***************
     13     0.014445617     0.014243028     0.000745579  *************** *************** ***************
     14     0.012192814     0.012639929     0.000922523  *************** *************** ***************
     15     0.013842784     0.013763381     0.000368177  *************** *************** ***************
     16     0.011494991     0.011583241    -0.000464693  *************** *************** ***************
     17     0.011195650     0.011144518    -0.000274191  *************** *************** ***************
     18     0.010717861     0.011033116    -0.000135445  *************** *************** ***************
     19     0.010854862     0.010548999     0.000615738  *************** *************** ***************
     20     0.010345236     0.010466626     0.000983193  *************** *************** ***************
     21     0.011103557     0.010767466    -0.000705411  *************** *************** ***************
     22     0.014161315     0.011546090    -0.002079294  *************** *************** ***************
     23     0.011701448     0.011754207    -0.000019399  *************** *************** ***************
     24     0.011347856     0.011384349    -0.000608626  *************** *************** ***************
     25     0.011358090     0.011264613    -0.000608293  *************** *************** ***************
     26     0.011217636     0.011186500    -0.000548679  *************** *************** ***************
     27     0.010811839     0.010976311    -0.000449648  *************** *************** ***************
     28     0.008921099     0.010564716    -0.000829477  *************** *************** ***************
     29     0.006932193     0.000850191     0.000979379  *************** *************** ***************
     30     0.009896401     0.010922020     0.000220574  *************** *************** ***************
     31     0.010836789     0.010953697     0.000261132  *************** *************** ***************
     32     0.010846896     0.010960210     0.000029310  *************** *************** ***************
     33     0.010831610     0.010912991     0.000201900  *************** *************** ***************
     34     0.010067282     0.010930586    -0.000036126  *************** *************** ***************
     35     0.011477047     0.011498963     0.000060871  *************** *************** ***************
     36     0.011462319     0.011277187     0.000064695  *************** *************** ***************
     37     0.011337039     0.011184464     0.000204973  *************** *************** ***************
     38     0.010964091     0.010711985    -0.000273858  *************** *************** ***************
     39     0.010613288     0.010063673     0.000257639  *************** *************** ***************
     40     0.010634183     0.010528890    -0.000178476  *************** *************** ***************
     41     0.010576933     0.010480719    -0.000170334  *************** *************** ***************
     42     0.010344170     0.010021586    -0.000162036  *************** *************** ***************

Element                    Principal stresses             Von mises stress
number     1st principal    2nd principal   Angle
      1 *************** ***************    -1.149348649  ***************
      2 *************** ***************    -0.065954417  ***************
      3 *************** ***************     1.241244489  ***************
      4 *************** ***************     0.305263187  ***************
      5 *************** ***************     0.496270255  ***************
      6 *************** ***************    -0.710850200  ***************
      7 *************** ***************    -0.322798840  ***************
      8 *************** ***************    -1.134960604  ***************
      9 *************** ***************     0.570573384  ***************
     10 *************** ***************    -0.244265521  ***************
     11 *************** ***************    -0.830138778  ***************
     12 *************** ***************     1.425389859  ***************
     13 *************** ***************    -0.652741088  ***************
     14 *************** ***************    -1.011050713  ***************
     15 *************** ***************    -0.679192526  ***************
     16 *************** ***************     0.879235999  ***************
     17 *************** ***************     0.693215822  ***************
     18 *************** ***************     1.367900456  ***************
     19 *************** ***************    -0.554879236  ***************
     20 *************** ***************    -0.846819883  ***************
     21 *************** ***************     0.563083982  ***************
     22 *************** ***************     0.335864672  ***************
     23 *************** ***************     1.394624808  ***************
     24 *************** ***************     0.815342250  ***************
     25 *************** ***************     0.709159077  ***************
     26 *************** ***************     0.757055055  ***************
     27 *************** ***************     0.960729863  ***************
     28 *************** ***************     1.337109749  ***************
     29 *************** ***************    -0.079829244  ***************
     30 *************** ***************    -1.464877545  ***************
     31 *************** ***************    -0.995865947  ***************
     32 *************** ***************    -1.444237436  ***************
     33 *************** ***************    -0.976974640  ***************
     34 *************** ***************     1.549885317  ***************
     35 *************** ***************    -0.958196963  ***************
     36 *************** ***************    -0.168093133  ***************
     37 *************** ***************    -0.465455497  ***************
     38 *************** ***************     0.413365596  ***************
     39 *************** ***************    -0.219173280  ***************
     40 *************** ***************     0.518896226  ***************
     41 *************** ***************     0.528308422  ***************
     42 *************** ***************     0.232745371  ***************
 Node            Temperatures
     1  1133.385558904    -0.002241934      0.000000000     0.000000000
     2  1063.527942330    -0.005909060      0.000000000     0.000000000
     3  1205.122582680    -0.001560785      0.000000000     0.000000000
     4  1241.775321363    -0.001102477      0.000000000     0.000000000
     5  1261.948147109    -0.000940382      0.000000000     0.000000000
     6  1267.450899887    -0.001043616      0.000000000     0.000000000
     7  1267.670781532    -0.001380741      0.000000000     0.000000000
     8  1250.555366458    -0.001889764      0.000000000     0.000000000
     9  1223.348715262    -0.002428486      0.000000000     0.000000000
    10  1203.472986338    -0.003120909      0.000000000     0.000000000
    11  1157.619913081    -0.003956804      0.000000000     0.000000000
    12  1059.015599548    -0.004881182      0.000000000     0.000000000
    13  1073.583225311    -0.005575916      0.000000000     0.000000000
    14  1416.334253589    -0.006802696      0.000000000     0.000000000
    15  1192.124628676    -0.001642791      0.000000000     0.000000000
    16  1219.862205977    -0.000816777      0.000000000     0.000000000
    17  1248.679870800    -0.000070473      0.000000000     0.000000000
    18  1267.942654248     0.000566857      0.000000000     0.000000000
    19  1285.110817525     0.001078637      0.000000000     0.000000000
    20  1308.358241588     0.001282257      0.000000000     0.000000000
    21  1295.737770659     0.001079510      0.000000000     0.000000000
    22  1282.344008458     0.000597531      0.000000000     0.000000000
    23  1262.051371538    -0.000047816      0.000000000     0.000000000
    24  1236.319045654    -0.000797409      0.000000000     0.000000000
    25  1222.725574137    -0.001657841      0.000000000     0.000000000
    26  1194.563918470    -0.002536171      0.000000000     0.000000000
    27  1162.840914819    -0.003445025      0.000000000     0.000000000
    28  1099.844942435    -0.004445548      0.000000000     0.000000000
    29  1167.665184774    -0.002435930      0.000000000     0.000000000
    30  1138.898030063    -0.003354729      0.000000000     0.000000000
    31  1365.035382935    -0.004372634      0.000000000     0.000000000
    32  1114.569661884    -0.003260749      0.000000000     0.000000000
    33   550.621632008    -0.001655960      0.000000000     0.000000000
    34   351.455274637     0.000000000      0.000000000     0.000000000
    35   499.346526634    -0.001000538      0.000000000     0.000000000
    36   462.288632512    -0.000441589      0.000000000     0.000000000
    37   275.252390590     0.000000000      0.000000000     0.000000000
    38   523.354428026    -0.001298654      0.000000000     0.000000000
    39   408.148138610    -0.000541147      0.000000000     0.000000000
    40   609.967664480    -0.002193268      0.000000000     0.000000000
    41   861.291420497    -0.003539571      0.000000000     0.000000000
    42   829.246765366    -0.003426986      0.000000000     0.000000000
    43   564.313164200    -0.002482798      0.000000000     0.000000000
    44   784.267644294    -0.005316998      0.000000000     0.000000000
    45   413.988568462    -0.001204453      0.000000000     0.000000000
    46   691.541837310    -0.004370267      0.000000000     0.000000000
    47   610.064919232    -0.003544659      0.000000000     0.000000000
    48   545.825104564    -0.002784357      0.000000000     0.000000000
    49   504.606726890    -0.002028180      0.000000000     0.000000000
    50   733.680250133    -0.004580689      0.000000000     0.000000000
    51   807.440340975    -0.005358948      0.000000000     0.000000000
    52  1003.297612609    -0.006136429      0.000000000     0.000000000
    53   394.388839601    -0.001681405      0.000000000     0.000000000
    54   580.703499732    -0.003512555      0.000000000     0.000000000
    55   497.571804306    -0.002543867      0.000000000     0.000000000
    56   345.638019817     0.000127687      0.000000000     0.000000000
    57   400.324398130    -0.000901908      0.000000000     0.000000000
    58   399.838235365     0.000186754      0.000000000     0.000000000
    59   396.547116252    -0.000019424      0.000000000     0.000000000
    60   413.478010861    -0.000398892      0.000000000     0.000000000
    61   370.514999339    -0.001349163      0.000000000     0.000000000
    62   269.189910576    -0.000041125      0.000000000     0.000000000
    63   341.673662474     0.000021234      0.000000000     0.000000000
    64   349.846629293    -0.000256754      0.000000000     0.000000000
    65   374.523352570    -0.000731017      0.000000000     0.000000000
    66   884.114896427    -0.002606676      0.000000000     0.000000000

Compliance        Max Von mises stress            Average Area of elements
           10078502.1094              821800125.229           3.698710712093E-03
